param TAU: 0	1	 2	  3	 	4 :=  #end station
0		  100  100   2	 100   100		
1		  100  100	 4	 100   100
2  		  100  100	100   3     5
3		  100  100  100	 100   100
4		  100  100  100  100   100;						;
#start

set src := 0 1; 
set snk := 3 4 ;